61 21 4.836065573770492 
7 2 1 240.0 2 240.0 1 3 120.0 4 4 180.0 5 180.0 6 180.0 7 180.0 2 8 300.0 9 300.0 1 10 420.0 2 11 300.0 12 300.0 1 13 120.0 
6 4 4 240.0 5 240.0 6 240.0 7 240.0 2 8 180.0 9 180.0 1 3 120.0 4 4 360.0 5 360.0 6 360.0 7 360.0 1 14 480.0 1 13 180.0 
3 2 15 720.0 16 720.0 1 14 480.0 1 13 120.0 
5 2 1 240.0 2 240.0 1 3 60.0 4 4 180.0 5 180.0 6 180.0 7 180.0 1 10 120.0 2 8 360.0 9 360.0 
4 1 17 180.0 4 18 300.0 19 300.0 20 300.0 17 300.0 1 17 180.0 1 21 360.0 
7 2 1 240.0 2 240.0 1 3 120.0 4 4 180.0 5 180.0 6 180.0 7 180.0 2 8 300.0 9 300.0 1 10 420.0 2 11 300.0 12 300.0 1 13 120.0 
7 2 1 240.0 2 240.0 1 3 120.0 4 4 180.0 5 180.0 6 180.0 7 180.0 2 8 300.0 9 300.0 1 10 420.0 2 11 300.0 12 300.0 1 13 120.0 
3 2 15 720.0 16 720.0 1 14 480.0 1 13 120.0 
5 2 1 240.0 2 240.0 1 3 60.0 4 4 180.0 5 180.0 6 180.0 7 180.0 1 10 240.0 2 8 360.0 9 360.0 
4 1 17 180.0 4 18 300.0 19 300.0 20 300.0 17 300.0 1 17 180.0 1 21 360.0 
6 4 4 240.0 5 240.0 6 240.0 7 240.0 2 8 180.0 9 180.0 1 3 120.0 4 4 360.0 5 360.0 6 360.0 7 360.0 1 14 480.0 1 13 180.0 
6 4 4 240.0 5 240.0 6 240.0 7 240.0 2 8 180.0 9 180.0 1 3 120.0 4 4 360.0 5 360.0 6 360.0 7 360.0 1 14 480.0 1 13 180.0 
7 2 1 240.0 2 240.0 1 3 120.0 4 4 180.0 5 180.0 6 180.0 7 180.0 2 8 300.0 9 300.0 1 10 420.0 2 11 300.0 12 300.0 1 13 120.0 
7 2 1 240.0 2 240.0 1 3 120.0 4 4 180.0 5 180.0 6 180.0 7 180.0 2 8 300.0 9 300.0 1 10 420.0 2 11 300.0 12 300.0 1 13 120.0 
2 2 1 720.0 2 720.0 1 13 60.0 
7 2 1 240.0 2 240.0 1 3 120.0 4 4 180.0 5 180.0 6 180.0 7 180.0 2 8 300.0 9 300.0 1 10 420.0 2 11 300.0 12 300.0 1 13 120.0 
3 2 15 720.0 16 720.0 1 14 480.0 1 13 120.0 
5 2 1 240.0 2 240.0 1 3 60.0 4 4 180.0 5 180.0 6 180.0 7 180.0 1 10 240.0 2 8 360.0 9 360.0 
4 1 17 180.0 4 18 300.0 19 300.0 20 300.0 17 300.0 1 17 180.0 1 21 360.0 
2 2 1 720.0 2 720.0 1 13 60.0 
7 2 1 240.0 2 240.0 1 3 120.0 4 4 180.0 5 180.0 6 180.0 7 180.0 2 8 300.0 9 300.0 1 10 420.0 2 11 300.0 12 300.0 1 13 120.0 
3 2 15 720.0 16 720.0 1 14 480.0 1 13 120.0 
5 2 1 240.0 2 240.0 1 3 60.0 4 4 180.0 5 180.0 6 180.0 7 180.0 1 10 240.0 2 8 360.0 9 360.0 
4 1 17 180.0 4 18 300.0 19 300.0 20 300.0 17 300.0 1 17 180.0 1 21 360.0 
7 2 1 240.0 2 240.0 1 3 120.0 4 4 180.0 5 180.0 6 180.0 7 180.0 2 8 300.0 9 300.0 1 10 420.0 2 11 300.0 12 300.0 1 13 120.0 
2 2 1 720.0 2 720.0 1 13 60.0 
3 2 15 720.0 16 720.0 1 14 480.0 1 13 120.0 
5 2 1 240.0 2 240.0 1 3 60.0 4 4 180.0 5 180.0 6 180.0 7 180.0 1 10 240.0 2 8 360.0 9 360.0 
4 1 17 180.0 4 18 300.0 19 300.0 20 300.0 17 300.0 1 17 180.0 1 21 360.0 
6 4 4 240.0 5 240.0 6 240.0 7 240.0 2 8 180.0 9 180.0 1 3 120.0 4 4 360.0 5 360.0 6 360.0 7 360.0 1 14 480.0 1 13 180.0 
7 2 1 240.0 2 240.0 1 3 120.0 4 4 180.0 5 180.0 6 180.0 7 180.0 2 8 300.0 9 300.0 1 10 420.0 2 11 300.0 12 300.0 1 13 120.0 
2 2 1 720.0 2 720.0 1 13 60.0 
2 2 1 720.0 2 720.0 1 13 60.0 
3 2 15 720.0 16 720.0 1 14 480.0 1 13 120.0 
5 2 1 240.0 2 240.0 1 3 60.0 4 4 180.0 5 180.0 6 180.0 7 180.0 1 10 240.0 2 8 360.0 9 360.0 
4 1 17 180.0 4 18 300.0 19 300.0 20 300.0 17 300.0 1 17 180.0 1 21 360.0 
6 4 4 240.0 5 240.0 6 240.0 7 240.0 2 8 180.0 9 180.0 1 3 120.0 4 4 360.0 5 360.0 6 360.0 7 360.0 1 14 480.0 1 13 180.0 
3 2 15 720.0 16 720.0 1 14 480.0 1 13 120.0 
5 2 1 240.0 2 240.0 1 3 60.0 4 4 180.0 5 180.0 6 180.0 7 180.0 1 10 240.0 2 8 360.0 9 360.0 
4 1 17 180.0 4 18 300.0 19 300.0 20 300.0 17 300.0 1 17 180.0 1 21 360.0 
7 2 1 240.0 2 240.0 1 3 120.0 4 4 180.0 5 180.0 6 180.0 7 180.0 2 8 300.0 9 300.0 1 10 420.0 2 11 300.0 12 300.0 1 13 120.0 
7 2 1 240.0 2 240.0 1 3 120.0 4 4 180.0 5 180.0 6 180.0 7 180.0 2 8 300.0 9 300.0 1 10 420.0 2 11 300.0 12 300.0 1 13 120.0 
3 2 15 720.0 16 720.0 1 14 480.0 1 13 120.0 
5 2 1 240.0 2 240.0 1 3 60.0 4 4 180.0 5 180.0 6 180.0 7 180.0 1 10 240.0 2 8 360.0 9 360.0 
4 1 17 180.0 4 18 300.0 19 300.0 20 300.0 17 300.0 1 17 180.0 1 21 360.0 
6 4 4 240.0 5 240.0 6 240.0 7 240.0 2 8 180.0 9 180.0 1 3 120.0 4 4 360.0 5 360.0 6 360.0 7 360.0 1 14 480.0 1 13 180.0 
6 4 4 240.0 5 240.0 6 240.0 7 240.0 2 8 180.0 9 180.0 1 3 120.0 4 4 360.0 5 360.0 6 360.0 7 360.0 1 14 480.0 1 13 180.0 
7 2 1 240.0 2 240.0 1 3 120.0 4 4 180.0 5 180.0 6 180.0 7 180.0 2 8 300.0 9 300.0 1 10 420.0 2 11 300.0 12 300.0 1 13 120.0 
7 2 1 240.0 2 240.0 1 3 120.0 4 4 180.0 5 180.0 6 180.0 7 180.0 2 8 300.0 9 300.0 1 10 420.0 2 11 300.0 12 300.0 1 13 120.0 
2 2 1 720.0 2 720.0 1 13 60.0 
7 2 1 240.0 2 240.0 1 3 120.0 4 4 180.0 5 180.0 6 180.0 7 180.0 2 8 300.0 9 300.0 1 10 420.0 2 11 300.0 12 300.0 1 13 120.0 
3 2 15 720.0 16 720.0 1 14 240.0 1 13 120.0 
5 2 1 240.0 2 240.0 1 3 60.0 4 4 180.0 5 180.0 6 180.0 7 180.0 1 10 240.0 2 8 360.0 9 360.0 
4 1 17 180.0 4 18 300.0 19 300.0 20 300.0 17 300.0 1 17 180.0 1 21 360.0 
2 2 1 720.0 2 720.0 1 13 60.0 
7 2 1 240.0 2 240.0 1 3 120.0 4 4 180.0 5 180.0 6 180.0 7 180.0 2 8 300.0 9 300.0 1 10 420.0 2 11 300.0 12 300.0 1 13 120.0 
3 2 15 720.0 16 720.0 1 14 480.0 1 13 120.0 
5 2 1 240.0 2 240.0 1 3 60.0 4 4 180.0 5 180.0 6 180.0 7 180.0 1 10 240.0 2 8 360.0 9 360.0 
4 1 17 180.0 4 18 300.0 19 300.0 20 300.0 17 300.0 1 17 180.0 1 21 360.0 
7 2 1 240.0 2 240.0 1 3 120.0 4 4 180.0 5 180.0 6 180.0 7 180.0 2 8 300.0 9 300.0 1 10 420.0 2 11 300.0 12 300.0 1 13 120.0 
7 2 1 240.0 2 240.0 1 3 120.0 4 4 180.0 5 180.0 6 180.0 7 180.0 2 8 300.0 9 300.0 1 10 420.0 2 11 300.0 12 300.0 1 13 120.0 

